Normalized Data/p01_11_normalized_splitx10_0.vrp
NAME:p01_11_NORMALIZED_splitx10_
BEST_KNOWN: 0
COMMENT: 0
DIMENSION: 183
CAPACITY: 1000
EDGE_WEIGHT_FORMAT: FUNCTION
EDGE_WEIGHT_TYPE: EXACT_2D
NODE_COORD_SECTION
1 0.00000 0.00000
2 41 28
3 41 28
4 -30 -25
5 -30 -25
6 -30 -25
7 -30 -25
8 43 -35
9 43 -35
10 43 -35
11 43 -35
12 30 -14
13 30 -14
14 -12 -15
15 -12 -15
16 -12 -15
17 -12 -15
18 -12 -15
19 -12 -15
20 -48 -2
21 -48 -2
22 -48 -2
23 -48 -2
24 -48 -2
25 44 0
26 44 0
27 44 0
28 44 0
29 44 0
30 44 0
31 -29 36
32 -29 36
33 -29 36
34 -29 36
35 -29 36
36 -2 3
37 -2 3
38 -15 29
39 -15 29
40 -15 29
41 -15 29
42 -26 -34
43 -26 -34
44 -1 42
45 -1 42
46 -1 42
47 -1 42
48 -1 42
49 35 -33
50 35 -33
51 -31 -30
52 -31 -30
53 -19 19
54 -19 19
55 -19 19
56 -19 19
57 -28 -22
58 -28 -22
59 -28 -22
60 -28 -22
61 -28 -22
62 -28 -22
63 -47 -29
64 -47 -29
65 -47 -29
66 -47 -29
67 -47 -29
68 -47 -29
69 -47 -29
70 46 44
71 46 44
72 46 44
73 46 44
74 -36 14
75 -36 14
76 -36 14
77 -36 14
78 -36 14
79 34 0
80 18 9
81 18 9
82 18 9
83 29 -49
84 29 -49
85 21 -1
86 21 -1
87 21 -1
88 28 29
89 28 29
90 -24 -25
91 -24 -25
92 -24 -25
93 -15 -24
94 -15 -24
95 -15 -24
96 -32 31
97 -32 31
98 -32 31
99 -32 31
100 -32 31
101 -28 11
102 -28 11
103 5 41
104 5 41
105 5 41
106 5 41
107 5 41
108 5 41
109 32 -43
110 32 -43
111 32 -43
112 32 -43
113 -12 -5
114 -12 -5
115 -12 -5
116 -12 -5
117 -12 -5
118 -33 -22
119 -33 -22
120 18 -2
121 18 -2
122 11 16
123 11 16
124 -46 -16
125 -46 -16
126 -46 -16
127 -35 19
128 -35 19
129 -35 19
130 -35 19
131 -13 -39
132 -13 -39
133 -13 -39
134 -13 -39
135 0 15
136 0 15
137 0 15
138 0 15
139 0 15
140 30 -45
141 30 -45
142 30 -45
143 30 -45
144 30 -45
145 -12 -42
146 -34 24
147 -34 24
148 -34 24
149 -34 24
150 18 40
151 18 40
152 18 40
153 18 40
154 18 40
155 18 40
156 -27 12
157 -27 12
158 -27 12
159 -27 12
160 -27 12
161 -27 12
162 17 25
163 17 25
164 17 25
165 -6 6
166 -6 6
167 -6 6
168 -36 -44
169 -36 -44
170 -36 -44
171 -36 -44
172 20 -44
173 20 -44
174 20 -44
175 14 2
176 14 2
177 -19 -45
178 -19 -45
179 -19 -45
180 -19 -45
181 7 -22
182 7 -22
183 7 -22
DEMAND_SECTION
1 0
2 200
3 100
4 200
5 10
6 10
7 10
8 100
9 10
10 10
11 10
12 200
13 50
14 200
15 200
16 50
17 10
18 10
19 10
20 200
21 200
22 10
23 10
24 10
25 200
26 200
27 50
28 10
29 10
30 10
31 200
32 100
33 10
34 10
35 10
36 200
37 100
38 200
39 200
40 50
41 10
42 100
43 50
44 100
45 50
46 10
47 10
48 10
49 200
50 10
51 200
52 200
53 200
54 100
55 50
56 10
57 200
58 200
59 10
60 10
61 10
62 10
63 200
64 100
65 50
66 10
67 10
68 10
69 10
70 200
71 100
72 50
73 10
74 200
75 200
76 10
77 10
78 10
79 200
80 200
81 100
82 50
83 200
84 10
85 200
86 200
87 10
88 200
89 200
90 200
91 100
92 50
93 200
94 100
95 10
96 100
97 50
98 10
99 10
100 10
101 200
102 10
103 200
104 200
105 10
106 10
107 10
108 10
109 100
110 10
111 10
112 10
113 200
114 50
115 10
116 10
117 10
118 200
119 50
120 200
121 100
122 100
123 50
124 200
125 50
126 10
127 200
128 100
129 50
130 10
131 100
132 10
133 10
134 10
135 200
136 100
137 10
138 10
139 10
140 200
141 200
142 10
143 10
144 10
145 200
146 100
147 50
148 10
149 10
150 200
151 200
152 50
153 10
154 10
155 10
156 200
157 100
158 50
159 10
160 10
161 10
162 100
163 10
164 10
165 200
166 200
167 50
168 200
169 100
170 50
171 10
172 200
173 10
174 10
175 100
176 50
177 100
178 50
179 10
180 10
181 200
182 50
183 10
DEPOT_SECTION
1
-1
EOF