Normalized Data/p01_11_normalized_splitx10_0.sol
182 -12 11 8 7 9 10 48 49 180 181 182 -19 20 21 23 22 125 124 123 118 117 -36 35 166 164 165 -38 37 39 40 32 30 33 31 34 97 99 95 98 96 -50 168 170 169 167 62 65 67 66 68 63 64 -53 55 54 52 158 155 159 160 156 157 100 101 -77 74 73 76 75 126 128 129 127 145 147 148 146 -78 28 27 26 29 24 25 81 79 -80 2 1 72 71 70 69 88 -87 149 153 152 154 150 151 161 162 163 122 121 -89 3 4 6 5 56 57 59 58 61 60 114 115 113 -91 90 51 42 41 178 176 179 177 144 133 131 132 130 -92 94 93 17 13 16 18 15 14 116 112 -102 104 103 107 106 105 46 43 47 45 44 135 137 136 138 134 -108 109 111 110 143 142 141 140 139 83 82 172 171 173 -120 119 85 84 86 174 175 0 





OBJ=
1472.575
BEST_KNOWN=
0.000